20J7M/DAT/20J7MUNL-16.dat
20 7
32.4548 32.4548
15.5276 15.5276
32.0243 32.0243
15.373 15.373
3.8532 3.8532
17.4683 17.4683
31.0136 31.0136
1.0644 1.0644
13.3796 13.3796
8.7471 8.7471
4.6464 4.6464
19.1337 19.1337
26.0104 26.0104
25.0362 25.0362
24.5521 24.5521
25.7386 25.7386
39.7511 39.7511
30.1469 30.1469
23.1457 23.1457
11.385 11.385
400.452