20J7M/SOL/20J7MUNL-16.sol
solution status: optimal solution found
objective value:                     58.9718857142857
x#1#4                                               1 	(obj:0)
x#2#3                               0.747182498859265 	(obj:0)
x#2#4                               0.252817501140735 	(obj:0)
x#3#4                               0.207974273710631 	(obj:0)
x#3#5                               0.792025726289369 	(obj:0)
x#4#7                                               1 	(obj:0)
x#5#6                                               1 	(obj:0)
x#6#6                                               1 	(obj:0)
x#7#7                                               1 	(obj:0)
x#8#1                               0.129147525766942 	(obj:0)
x#8#2                               0.870852474233058 	(obj:0)
x#9#6                                               1 	(obj:0)
x#10#1                                              1 	(obj:0)
x#11#3                                              1 	(obj:0)
x#12#3                                              1 	(obj:0)
x#13#1                                              1 	(obj:0)
x#14#2                                              1 	(obj:0)
x#15#2                              0.329430261256864 	(obj:0)
x#15#3                              0.670569738743136 	(obj:0)
x#16#6                              0.121040659291783 	(obj:0)
x#16#7                              0.878959340708218 	(obj:0)
x#17#1                                              1 	(obj:0)
x#18#2                                              1 	(obj:0)
x#19#5                              0.514592656029508 	(obj:0)
x#19#6                              0.485407343970492 	(obj:0)
x#20#6                                              1 	(obj:0)
z                                    58.9718857142857 	(obj:1)
